191 300 176 180 188 160 158 179 159 174 173 159 185 150 190 192 195 185 163 181 152 174 152 199 176 155 193 152 162 154 164 152 157 190 183 170 200 165 173 158 163 196 192 198 170 182 190 164 191 177 196 193 175 172 166 150 178 183 152 164 187 166 191 168 180 198 188 179 162 160 161 200 180 153 172 200 159 186 189 174 162 158 191 187 180 156 161 182 163 188 196 200 178 161 193 157 158 180 160 196 165 171 195 195 199 166 169 182 151 157 155 163 165 197 200 169 177 160 151 165 172 171 164 200 182 156 156 191 161 166 186 176 162 180 195 185 197 188 167 172 195 197 186 184 167 159 153 169 195 154 184 166 200 172 166 182 153 197 197 189 163 182 164 200 186 183 158 156 171 200 179 190 197 189 199 188 198 151 181 166 180 164 157 179 161 173 185 164 169 181 152 156 187 